%KILLER PROCESS FOR TESTING - 30 TASKS, EACH TASK PRODUCES ONE DATA ENTITY

input_states_names = ["a", "b", "c", "d", "e", "f", "g", "h/i", "DU1", "DU2", "j/k", "l", "m", "n", "o", "p", "q", "r", "s", "t", "u", "v", "w", "x", "y/z", "ae", "aa", "ab", "ac", "ad"]; 
% order is significant! Indexes are later used in the following arrays.
input_tasks_names = ["A", "B", "C", "D", "E", "F", "G", "H", "I", "J", "K", "L", "M", "N", "O", "P", "Q", "R", "S", "T", "U", "V", "W", "X", "Y", "Z", "AA", "AB", "AC", "AE", "AD"]; 
% order is significant! Indexes are later used in the following arrays.

% for every task we specify, what it requires, size of the list should be equal to amount of tasks x amount of states (1- required, 0-forbidden, -1-doesn't matter)

%if there is a need for one of tasks to be present then create a dummy data entity, e.g. jk = j OR k, TODO: last part of effects
input_tasks_conditions = [  
%  a   b   c   d   e   f   g  h/i DU1 DU2 j/k  l   m   n   o   p   q   r   s   t   u   v   w   x  y/z ae aa  ab  ac  ad
   0,  0,  0,  0,  0,  0,  0,  0,  0,  0,  0,  0,  0,  0,  0,  0,  0,  0,  0,  0,  0,  0,  0,  0,  0,  0,  0,  0,  0,  0, % A
   1,  0, -1,  0,  0,  0,  0,  0,  0,  0,  0,  0,  0,  0,  0,  0,  0,  0,  0,  0,  0,  0,  0,  0,  0,  0,  0,  0,  0,  0, % B
   1, -1,  0, -1,  0,  0,  0,  0,  0,  0,  0,  0,  0,  0,  0,  0,  0,  0,  0,  0,  0,  0,  0,  0,  0,  0,  0,  0,  0,  0, % C
   1,  1, -1,  0,  0,  0,  0,  0,  0,  0,  0,  0,  0,  0,  0,  0,  0,  0,  0,  0,  0,  0,  0,  0,  0,  0,  0,  0,  0,  0, % D
   1,  1,  1, -1,  0,  0,  0,  0,  0,  0,  0,  0,  0,  0,  0,  0,  0,  0,  0,  0,  0,  0,  0,  0,  0,  0,  0,  0,  0,  0, % E
   
  -1, -1, -1, -1,  1,  0,  0,  0,  0,  0,  0,  0,  0,  0,  0,  0,  0,  0,  0,  0,  0,  0,  0,  0,  0,  0,  0,  0,  0,  0, % F
   0,  0,  0,  0, -1,  1,  0,  0,  0,  0,  0,  0,  0,  0,  0,  0,  0,  0,  0,  0,  0,  0,  0,  0,  0,  0,  0,  0,  0,  0, % G
   0,  0,  0,  0, -1,  1,  1,  0,  0,  0,  0,  0,  0,  0,  0,  0,  0,  0,  0,  0,  0,  0,  0,  0,  0,  0,  0,  0,  0,  0, % H
   0,  0,  0,  0, -1,  1,  0,  0,  0,  0,  0,  0,  0,  0,  0,  0,  0,  0,  0,  0,  0,  0,  0,  0,  0,  0,  0,  0,  0,  0, % I
   0,  0,  0,  0, -1,  1, -1,  1,  0,  0,  0,  0,  0,  0,  0,  0,  0,  0,  0,  0,  0,  0,  0,  0,  0,  0,  0,  0,  0,  0, % J
  -1, -1, -1, -1,  1,  0,  0,  0,  0,  0,  0,  0,  0,  0,  0,  0,  0,  0,  0,  0,  0,  0,  0,  0,  0,  0,  0,  0,  0,  0, % K  
    
   0,  0,  0,  0, -1, -1, -1, -1,  0,  0,  1,  0,  0,  0,  0, -1, -1,  0,  0,  0,  0,  0,  0,  0,  0,  0,  0,  0,  0,  0, % L
   0,  0,  0,  0,  0,  0,  0,  0,  0,  0, -1,  1,  0,  0, -1, -1, -1,  0,  0,  0,  0,  0,  0,  0,  0,  0,  0,  0,  0,  0, % M
   0,  0,  0,  0,  0,  0,  0,  0,  0,  0, -1,  1,  1, -1,  1, -1, -1,  0,  0,  0,  0,  0,  0,  0,  0,  0,  0,  0,  0,  0, % N
   0,  0,  0,  0,  0,  0,  0,  0,  0,  0, -1,  1, -1,  0,  0, -1, -1,  0,  0,  0,  0,  0,  0,  0,  0,  0,  0,  0,  0,  0, % O
   0,  0,  0,  0, -1, -1, -1, -1,  0,  0,  1, -1, -1, -1, -1,  0,  0,  0,  0,  0,  0,  0,  0,  0,  0,  0,  0,  0,  0,  0, % P
   0,  0,  0,  0,  0,  0,  0,  0,  0,  0, -1, -1, -1, -1, -1,  1,  0,  0,  0,  0,  0,  0,  0,  0,  0,  0,  0,  0,  0,  0, % Q 
   0,  0,  0,  0,  0,  0,  0,  0,  0,  0, -1,  1,  1,  1,  1,  1,  1,  0,  0,  0,  0,  0,  0,  0,  0,  0,  0,  0,  0,  0, % R
   
   0,  0,  0,  0,  0,  0,  0,  0,  0,  0,  0,  0,  0,  0,  0,  0,  0,  1,  0, -1,  0,  0,  0,  0,  0,  0,  0,  0,  0,  0, % S
   0,  0,  0,  0,  0,  0,  0,  0,  0,  0,  0,  0,  0,  0,  0,  0,  0,  1, -1,  0,  0,  0,  0,  0,  0,  0,  0,  0,  0,  0, % T
   0,  0,  0,  0,  0,  0,  0,  0,  0,  0,  0,  0,  0,  0,  0,  0,  0,  1,  1,  1,  0,  0,  0,  0,  0,  0,  0,  0,  0,  0, % U
   0,  0,  0,  0,  0,  0,  0,  0,  0,  0,  0,  0,  0,  0,  0,  0,  0,  1,  1,  1,  1,  0,  0,  0,  0,  0,  0,  0,  0,  0, % V
   0,  0,  0,  0,  0,  0,  0,  0,  0,  0,  0,  0,  0,  0,  0,  0,  0,  1,  0,  0,  0,  1,  0,  0,  0, -1,  0,  0,  0,  0, % W
   
   0,  0,  0,  0,  0,  0,  0,  0,  0,  0,  0,  0,  0,  0,  0,  0,  0,  1,  0,  0,  0, -1,  1,  0,  0,  0,  0,  0,  0,  0, % X
   0,  0,  0,  0,  0,  0,  0,  0,  0,  0,  0,  0,  0,  0,  0,  0,  0,  1,  0,  0,  0, -1,  0,  1,  0,  0,  0,  0,  0,  0, % Y
   0,  0,  0,  0,  0,  0,  0,  0,  0,  0,  0,  0,  0,  0,  0,  0,  0,  1,  0,  0,  0, -1,  0,  1,  0,  0,  0,  0,  0,  0, % Z
   0,  0,  0,  0,  0,  0,  0,  0,  0,  0,  0,  0,  0,  0,  0,  0,  0,  1,  0,  0,  0, -1,  0,  1,  1,  0,  0, -1, -1,  0, % AA
   0,  0,  0,  0,  0,  0,  0,  0,  0,  0,  0,  0,  0,  0,  0,  0,  0,  1,  0,  0,  0, -1,  0,  1,  1,  0,  1,  0, -1,  0, % AB
   0,  0,  0,  0,  0,  0,  0,  0,  0,  0,  0,  0,  0,  0,  0,  0,  0,  1,  0,  0,  0, -1,  0,  1,  1,  0, -1, -1,  0,  0, % AC
   0,  0,  0,  0,  0,  0,  0,  0,  0,  0,  0,  0,  0,  0,  0,  0,  0,  1,  0,  0,  0, -1,  0,  1,  1,  0,  1,  0,  1,  0, % AE
   
   0,  0,  0,  0,  0,  0,  0,  0,  0,  0,  0,  0,  0,  0,  0,  0,  0,  1,  0,  0,  0, -1,  1,  0,  0, -1,  0,  0,  0,  0  % AD
  ]; % end

% for every task we specify, what is its effect, size of the list should be equal to amount of tasks x amount of states
input_tasks_effects = [ 
% task adds state (1), doesn't change any other state (-1), 0 would indicate that task removes the state
%  a   b   c   d   e   f   g  h/i DU1 DU2 j/k  l   m   n   o   p   q   r   s   t   u   v   w   x  y/z ae aa  ab  ac  ad
   1, -1, -1, -1, -1, -1, -1, -1, -1, -1, -1, -1, -1, -1, -1, -1, -1, -1, -1, -1, -1, -1, -1, -1, -1, -1, -1, -1, -1, -1, % A
  -1,  1, -1, -1, -1, -1, -1, -1, -1, -1, -1, -1, -1, -1, -1, -1, -1, -1, -1, -1, -1, -1, -1, -1, -1, -1, -1, -1, -1, -1, % B
  -1, -1,  1, -1, -1, -1, -1, -1, -1, -1, -1, -1, -1, -1, -1, -1, -1, -1, -1, -1, -1, -1, -1, -1, -1, -1, -1, -1, -1, -1, % C
  -1, -1, -1,  1, -1, -1, -1, -1, -1, -1, -1, -1, -1, -1, -1, -1, -1, -1, -1, -1, -1, -1, -1, -1, -1, -1, -1, -1, -1, -1, % D
   0,  0,  0,  0,  1, -1, -1, -1, -1, -1, -1, -1, -1, -1, -1, -1, -1, -1, -1, -1, -1, -1, -1, -1, -1, -1, -1, -1, -1, -1, % E
   
  -1, -1, -1, -1, -1,  1, -1, -1, -1, -1, -1, -1, -1, -1, -1, -1, -1, -1, -1, -1, -1, -1, -1, -1, -1, -1, -1, -1, -1, -1, % F
  -1, -1, -1, -1, -1, -1,  1, -1, -1, -1, -1, -1, -1, -1, -1, -1, -1, -1, -1, -1, -1, -1, -1, -1, -1, -1, -1, -1, -1, -1, % G
  -1, -1, -1, -1, -1, -1, -1,  1, -1, -1, -1, -1, -1, -1, -1, -1, -1, -1, -1, -1, -1, -1, -1, -1, -1, -1, -1, -1, -1, -1, % H
  -1, -1, -1, -1, -1, -1, -1,  1, -1, -1, -1, -1, -1, -1, -1, -1, -1, -1, -1, -1, -1, -1, -1, -1, -1, -1, -1, -1, -1, -1, % I
  -1, -1, -1, -1, -1,  0,  0,  0, -1, -1,  1, -1, -1, -1, -1, -1, -1, -1, -1, -1, -1, -1, -1, -1, -1, -1, -1, -1, -1, -1, % J
  -1, -1, -1, -1, -1, -1, -1, -1, -1, -1,  1, -1, -1, -1, -1, -1, -1, -1, -1, -1, -1, -1, -1, -1, -1, -1, -1, -1, -1, -1, % K
  
   0,  0,  0,  0,  0,  0,  0,  0, -1, -1, -1,  1, -1, -1, -1, -1, -1, -1, -1, -1, -1, -1, -1, -1, -1, -1, -1, -1, -1, -1, % L  
  -1, -1, -1, -1, -1, -1, -1, -1, -1, -1, -1, -1,  1, -1, -1, -1, -1, -1, -1, -1, -1, -1, -1, -1, -1, -1, -1, -1, -1, -1, % M
  -1, -1, -1, -1, -1, -1, -1, -1, -1, -1, -1, -1, -1,  1, -1, -1, -1, -1, -1, -1, -1, -1, -1, -1, -1, -1, -1, -1, -1, -1, % N
  -1, -1, -1, -1, -1, -1, -1, -1, -1, -1, -1, -1, -1, -1,  1, -1, -1, -1, -1, -1, -1, -1, -1, -1, -1, -1, -1, -1, -1, -1, % O
   0,  0,  0,  0,  0,  0,  0,  0, -1, -1, -1, -1, -1, -1, -1,  1, -1, -1, -1, -1, -1, -1, -1, -1, -1, -1, -1, -1, -1, -1, % P
  -1, -1, -1, -1, -1, -1, -1, -1, -1, -1, -1, -1, -1, -1, -1, -1,  1, -1, -1, -1, -1, -1, -1, -1, -1, -1, -1, -1, -1, -1, % Q
  -1, -1, -1, -1, -1, -1, -1, -1, -1, -1,  0,  0,  0,  0,  0,  0,  0,  1, -1, -1, -1, -1, -1, -1, -1, -1, -1, -1, -1, -1, % R 
  
  -1, -1, -1, -1, -1, -1, -1, -1, -1, -1, -1, -1, -1, -1, -1, -1, -1, -1,  1, -1, -1, -1, -1, -1, -1, -1, -1, -1, -1, -1, % S
  -1, -1, -1, -1, -1, -1, -1, -1, -1, -1, -1, -1, -1, -1, -1, -1, -1, -1, -1,  1, -1, -1, -1, -1, -1, -1, -1, -1, -1, -1, % T
  -1, -1, -1, -1, -1, -1, -1, -1, -1, -1, -1, -1, -1, -1, -1, -1, -1, -1, -1, -1,  1, -1, -1, -1, -1, -1, -1, -1, -1, -1, % U
  -1, -1, -1, -1, -1, -1, -1, -1, -1, -1, -1, -1, -1, -1, -1, -1, -1, -1,  0,  0,  0,  1, -1, -1, -1, -1, -1, -1, -1, -1, % V
  -1, -1, -1, -1, -1, -1, -1, -1, -1, -1, -1, -1, -1, -1, -1, -1, -1, -1, -1, -1, -1, -1,  1, -1, -1, -1, -1, -1, -1, -1, % W
  
  -1, -1, -1, -1, -1, -1, -1, -1, -1, -1, -1, -1, -1, -1, -1, -1, -1, -1, -1, -1, -1, -1,  0,  1, -1, -1, -1, -1, -1, -1, % X
  -1, -1, -1, -1, -1, -1, -1, -1, -1, -1, -1, -1, -1, -1, -1, -1, -1, -1, -1, -1, -1, -1, -1, -1,  1, -1, -1, -1, -1, -1, % Y
  -1, -1, -1, -1, -1, -1, -1, -1, -1, -1, -1, -1, -1, -1, -1, -1, -1, -1, -1, -1, -1, -1, -1, -1,  1, -1, -1, -1, -1, -1, % Z
  -1, -1, -1, -1, -1, -1, -1, -1, -1, -1, -1, -1, -1, -1, -1, -1, -1, -1, -1, -1, -1, -1, -1, -1, -1, -1,  1,  0, -1, -1, % AA
  -1, -1, -1, -1, -1, -1, -1, -1, -1, -1, -1, -1, -1, -1, -1, -1, -1, -1, -1, -1, -1, -1, -1, -1, -1, -1,  0,  1, -1, -1, % AB
  -1, -1, -1, -1, -1, -1, -1, -1, -1, -1, -1, -1, -1, -1, -1, -1, -1, -1, -1, -1, -1, -1, -1, -1, -1, -1, -1, -1,  1, -1, % AC
  -1, -1, -1, -1, -1, -1, -1, -1, -1, -1, -1, -1, -1, -1, -1, -1, -1, -1, -1, -1, -1, -1, -1,  0,  0,  1,  0, -1,  0, -1, % AE
  
  -1, -1, -1, -1, -1, -1, -1, -1, -1, -1, -1, -1, -1, -1, -1, -1, -1, -1, -1, -1, -1,  0,  0, -1, -1, -1, -1, -1, -1,  1  % AD 
  ]; % end

% what is the starting state of the process?
% 0 = not present, 1 = present
% You can't use the -1 here, state has to properly defined
%                        a   b   c   d   e   f   g  h/i DU1 DU2 j/k  l   m   n   o   p   q   r   s   t   u   v   w   x  y/z ae aa  ab  ac  ad
input_initial_state = [  0,  0,  0,  0,  0,  0,  0,  0,  0,  0,  0,  0,  0,  0,  0,  0,  0,  0,  0,  0,  0,  0,  0,  0,  0,  0,  0,  0,  0,  0];

% what is the goal of the process?
% -1 = doesn't matter, 1 = has to be present
%                     a   b   c   d   e   f   g  h/i DU1 DU2 j/k  l   m   n   o   p   q   r   s   t   u   v   w   x  y/z ae  aa  ab  ac  ad
input_goal_state = [  0,  0,  0,  0,  0,  0,  0,  0,  0,  0,  0,  0,  0,  0,  0,  0,  0,  1,  0,  0,  0, -1,  0, -1, -1, -1, -1, -1, -1,  1];%, %goal
                    %  0,  0,  0,  0,  1,  0,  0,  0,  0,  0,  0,  0,  0,  0,  0,  0,  0,  0,  0,  0,  0,  0,  0,  0,  0,  0,  0,  0,  0,  0]; %error

                    
                  
%what is the maximum execution number of a task (0 - unlimited)
input_tasks_executions = [
 1, % A
 1, % B
 1, % C
 1, % D
 1, % E
 1, % F

 1, % G
 1, % H
 1, % I
 1, % J
 1, % K
 1, % L

 1, % M
 1, % N
 1, % O
 1, % P
 1, % Q
 1, % R

 1, % S
 1, % T
 1, % U
 1, % V
 2, % W
 1, % X
 
 1, % Y
 1, % Z
 2, % AA
 1, % AB
 1, % AC
 1, % AE
 1  % AD
  ]; % end